c 92_4_checker.cnf
c
c field = 92
c formula set type = 4_checker
c
p cnf 5 38
180 
184 
186 
188 
-190 
181 
185 
187 
189 
-191 
184 
186 
188 
190 
-180 
185 
187 
189 
191 
-181 
184 
186 
188 
190 
-192 
185 
187 
189 
191 
-193 
62 
92 
122 
152 
-32 
63 
93 
123 
153 
-33 
62 
92 
122 
152 
-212 
63 
93 
123 
153 
-213 
92 
122 
152 
212 
-62 
93 
123 
153 
213 
-63 
92 
122 
152 
212 
-242 
93 
123 
153 
213 
-243 
122 
152 
212 
242 
-92 
123 
153 
213 
243 
-93 
122 
152 
212 
242 
-272 
123 
153 
213 
243 
-273 
152 
212 
242 
272 
-122 
153 
213 
243 
273 
-123 
152 
212 
242 
272 
-302 
153 
213 
243 
273 
-303 
212 
242 
272 
302 
-152 
213 
243 
273 
303 
-153 
212 
242 
272 
302 
-332 
213 
243 
273 
303 
-333 
150 
214 
246 
278 
-310 
151 
215 
247 
279 
-311 
214 
246 
278 
310 
-150 
215 
247 
279 
311 
-151 
214 
246 
278 
310 
-342 
215 
247 
279 
311 
-343 
70 
98 
126 
154 
-42 
71 
99 
127 
155 
-43 
70 
98 
126 
154 
-210 
71 
99 
127 
155 
-211 
98 
126 
154 
210 
-70 
99 
127 
155 
211 
-71 
